5159.67
0 9 2 1 10 5 6 8 3 4 7 17 11 16 34 0
0 20 18 14 19 12 15 13 21 0
0 47 31 33 40 37 46 41 28 30 44 52 22 24 26 23 27 25 0
0 39 36 42 43 35 45 32 29 58 49 53 50 88 0
0 38 48 51 55 62 54 56 59 60 64 0
0 73 72 69 61 57 63 67 68 65 124 0
0 103 75 70 71 77 79 76 66 84 86 81 85 83 0
0 87 82 93 94 91 74 110 78 80 0
0 89 96 107 90 92 116 140 120 0
0 114 108 101 95 98 106 104 105 97 100 121 137 0
0 109 115 111 99 129 122 119 0
0 118 117 113 112 102 125 130 134 131 123 126 0
0 139 142 145 148 150 136 128 133 138 132 127 135 143 141 147 144 0
0 146 149 0
